0 2134
1 2066
2 1917
3 1838
4 1657
5 1657
6 1655
7 1655
8 1655
9 1583
10 1564
11 1495
12 1473
13 1467
14 1467
15 1467
16 1387
17 1387
18 1387
19 1387
20 1262
21 1262
22 1262
23 1262
24 1262
25 1255
26 1255
27 1255
28 1255
29 1255
30 1245
31 1245
32 1226
33 1226
34 1199
35 1199
36 1199
37 1199
38 1199
39 1199
40 1199
41 1199
42 1199
43 1138
44 1138
45 1138
46 1138
47 1138
48 1117
49 1117
50 1117
51 1117
52 1117
53 1117
54 1117
55 1117
56 1117
57 1117
58 1117
59 1117
60 1117
61 1116
62 1099
63 1064
64 1064
65 1064
66 1064
67 1064
68 1064
69 1064
70 1064
71 1064
72 1064
73 1056
74 1056
75 1024
76 1024
77 1024
78 1024
79 1024
80 1024
81 1024
82 1024
83 1024
84 1024
85 1015
86 1015
87 1015
88 1015
89 1009
90 1009
91 998
92 998
93 971
94 971
95 971
96 971
97 971
98 969
99 969
100 966
101 966
102 966
103 966
104 966
105 966
106 966
107 962
108 962
109 940
110 940
111 940
112 940
113 940
114 940
115 940
116 940
117 940
118 936
119 936
120 936
121 936
122 936
123 936
124 936
125 936
126 935
127 921
128 921
129 921
130 921
131 921
132 920
133 911
134 911
135 905
136 905
137 905
138 905
139 905
140 905
141 905
142 905
143 905
144 905
145 905
146 905
147 905
148 905
149 905
150 903
151 902
152 902
153 895
154 882
155 882
156 882
157 882
158 882
159 882
160 882
161 882
162 882
163 882
164 882
165 882
166 882
167 882
168 882
169 882
170 882
171 882
172 882
173 882
174 877
175 877
176 877
177 877
178 877
179 872
180 872
181 872
182 872
183 872
184 872
185 872
186 872
187 872
188 872
189 872
190 866
191 866
192 866
193 866
194 866
195 866
196 866
197 866
198 866
199 866
200 866
201 866
202 866
203 866
204 866
205 866
206 866
207 853
208 853
209 853
210 853
211 853
212 853
213 853
214 853
215 853
216 853
217 853
218 853
219 853
220 853
221 853
222 853
223 846
224 846
225 846
226 846
227 846
228 846
229 846
230 846
231 846
232 846
233 841
234 841
235 841
236 841
237 841
238 841
239 841
240 841
241 841
242 841
243 841
244 841
245 839
246 839
247 839
248 839
249 839
250 839
251 839
252 839
253 839
254 839
255 837
256 837
257 837
258 837
259 837
260 837
261 837
262 837
263 837
264 837
265 837
266 837
267 837
268 837
269 837
270 837
271 835
272 835
273 834
274 834
275 834
276 834
277 834
278 834
279 834
280 834
281 834
282 834
283 834
284 834
285 834
286 834
287 834
288 834
289 834
290 834
291 834
292 834
293 834
294 834
295 834
296 834
297 834
298 834
299 834
300 834
301 834
302 834
303 834
304 834
305 834
306 834
307 834
308 833
309 833
310 833
311 833
312 833
313 832
314 832
315 832
316 832
317 832
318 832
319 832
320 832
321 832
322 832
323 832
324 832
325 830
326 830
327 830
328 830
329 830
330 830
331 830
332 830
333 830
334 830
335 830
336 830
337 830
338 830
339 830
340 830
341 830
342 830
343 830
344 830
345 830
346 830
347 830
348 830
349 830
350 830
351 830
352 830
353 830
354 830
355 830
356 830
357 830
358 830
359 830
360 830
361 830
362 830
363 830
364 830
365 830
366 830
367 830
368 830
369 830
370 830
371 830
372 830
373 830
374 830
375 830
376 830
377 830
378 830
379 830
380 830
381 830
382 830
383 830
384 830
385 830
386 830
387 830
388 830
389 830
390 830
391 830
392 830
393 830
394 830
395 830
396 830
397 830
398 830
399 830
400 830
401 830
402 830
403 830
404 830
405 830
406 830
407 830
408 830
409 830
410 830
411 830
412 830
413 830
414 830
415 830
416 830
417 830
418 830
419 830
420 830
421 830
422 830
423 830
424 830
425 830
426 830
427 830
428 830
429 830
430 830
431 830
432 830
433 830
434 830
435 830
436 830
437 830
438 830
439 830
440 830
441 830
442 830
443 830
444 830
445 830
446 830
447 830
448 830
449 830
450 830
451 830
452 830
453 830
454 830
455 830
456 830
457 830
458 830
459 830
460 830
461 830
462 830
463 830
464 830
465 830
466 830
467 830
468 830
469 830
470 830
471 830
472 830
473 830
474 830
475 830
476 830
477 830
478 830
479 830
480 830
481 830
482 830
483 830
484 830
485 830
486 830
487 830
488 830
489 830
490 830
491 830
492 830
493 830
494 830
495 830
496 830
497 830
498 830
499 830
500 830
501 830
502 830
503 830
504 830
505 830
506 830
507 830
508 830
509 830
510 830
511 830
512 830
513 830
514 830
515 830
516 830
517 830
518 830
519 830
520 830
521 830
522 830
523 830
524 830
525 830
526 830
527 830
528 830
529 830
530 830
531 830
532 830
533 830
534 830
535 830
536 830
537 830
538 830
539 830
540 830
541 830
542 830
543 830
544 830
545 830
546 830
547 830
548 830
549 830
550 830
551 830
552 830
553 830
554 830
555 830
556 830
557 830
558 830
559 830
560 830
561 830
562 830
563 830
564 830
565 830
566 830
567 830
568 830
569 830
570 830
571 830
572 830
573 830
574 830
575 830
576 830
577 830
578 830
579 830
580 830
581 830
582 830
583 830
584 830
585 830
586 830
587 830
588 830
589 830
590 830
591 830
592 830
593 830
594 830
595 830
596 830
597 830
598 830
599 830
600 830
601 830
602 830
603 830
604 830
605 830
606 830
607 830
608 830
609 830
610 830
611 830
612 830
613 830
614 830
615 830
616 830
617 830
618 830
619 830
620 830
621 830
622 830
623 830
624 830
625 830
626 830
627 830
628 830
629 830
630 830
631 830
632 830
633 830
634 830
635 830
636 830
637 830
638 830
639 830
640 830
641 830
642 830
643 830
644 830
645 830
646 830
647 830
648 830
649 830
650 830
651 830
652 830
653 830
654 830
655 830
656 830
657 830
658 830
659 830
660 830
661 830
662 830
663 830
664 830
665 830
666 830
667 830
668 830
669 830
670 830
671 830
672 830
673 830
674 830
675 830
676 830
677 830
678 830
679 830
680 830
681 830
682 830
683 830
684 830
685 830
686 830
687 830
688 830
689 830
690 830
691 830
692 830
693 830
694 830
695 830
696 830
697 830
698 830
699 830
700 830
701 830
702 830
703 830
704 830
705 830
706 830
707 830
708 830
709 830
710 830
711 830
712 830
713 830
714 830
715 830
716 830
717 830
718 830
719 830
720 830
721 830
722 830
723 830
724 830
725 830
726 830
727 830
728 830
729 830
730 830
731 830
732 830
733 830
734 830
735 830
736 830
737 830
738 830
739 830
740 830
741 830
742 830
743 830
744 830
745 830
746 830
747 830
748 830
749 830
750 830
751 830
752 830
753 830
754 830
755 830
756 830
757 830
758 830
759 830
760 830
761 830
762 830
763 830
764 830
765 830
766 830
767 830
768 830
769 830
770 830
771 830
772 830
773 830
774 830
775 830
776 830
777 830
778 830
779 830
780 830
781 830
782 830
783 830
784 830
785 830
786 830
787 830
788 830
789 830
790 830
791 830
792 830
793 830
794 830
795 830
796 830
797 830
798 830
799 830
800 830
801 830
802 830
803 830
804 830
805 830
806 830
807 830
808 830
809 830
810 830
811 830
812 830
813 830
814 830
815 830
816 830
817 830
818 830
819 830
820 830
821 830
822 830
823 830
824 830
825 830
826 830
827 830
828 830
829 830
830 830
831 830
832 830
833 830
834 830
835 830
836 830
837 830
838 830
839 830
840 830
841 830
842 830
843 830
844 830
845 830
846 830
847 830
848 830
849 830
850 830
851 830
852 830
853 830
854 830
855 830
856 830
857 830
858 830
859 830
860 830
861 830
862 830
863 830
864 830
865 830
866 830
867 830
868 830
869 830
870 830
871 830
872 830
873 830
874 830
875 830
876 830
877 830
878 830
879 830
880 830
881 830
882 830
883 830
884 830
885 830
886 830
887 830
888 830
889 830
890 830
891 830
892 830
893 830
894 830
895 830
896 830
897 830
898 830
899 830
900 830
901 830
902 830
903 830
904 830
905 830
906 830
907 830
908 830
909 830
910 830
911 830
912 830
913 830
914 830
915 830
916 830
917 830
918 830
919 830
920 830
921 830
922 830
923 830
924 830
925 830
926 830
927 830
928 830
929 830
930 830
931 830
932 830
933 830
934 830
935 830
936 830
937 830
938 830
939 830
940 830
941 830
942 830
943 830
944 830
945 830
946 830
947 830
948 830
949 830
950 830
951 830
952 830
953 830
954 830
955 830
956 830
957 830
958 830
959 830
960 830
961 830
962 830
963 830
964 830
965 830
966 830
967 830
968 830
969 830
970 830
971 830
972 830
973 830
974 830
975 830
976 830
977 830
978 830
979 830
980 830
981 830
982 830
983 830
984 830
985 830
986 830
987 830
988 830
989 830
990 830
991 830
992 830
993 830
994 830
995 830
996 830
997 830
998 830
999 830
Best: [[28,23,10,12,5,29,9,19,15],
       [31,17,2,13],
       [30,16,11,26,6,21],
       [27,8,14,18,20,32,22],
       [7,4,3,24,25]], fitness: 830
